NAME: random-57-8525
TYPE: TSP
COMMENT: size=57 seed=8525
DIMENSION: 116
EDGE_WEIGHT_TYPE: EUC_2D
NODE_COORD_SECTION
+0 675 438
-0 675 438
+1 223 498
-1 153 761
+2 798 929
-2 957 709
+3 599 832
-3 790 870
+4 188 670
-4 604 157
+5 402 187
-5 638 68
+6 189 501
-6 727 572
+7 138 756
-7 205 91
+8 461 787
-8 325 19
+9 704 369
-9 119 267
+10 93 528
-10 805 366
+11 187 632
-11 252 101
+12 222 585
-12 27 741
+13 231 679
-13 586 157
+14 991 56
-14 0 223
+15 386 903
-15 778 407
+16 608 308
-16 529 69
+17 587 509
-17 54 747
+18 161 695
-18 273 877
+19 488 778
-19 448 670
+20 496 354
-20 880 782
+21 978 573
-21 553 52
+22 335 425
-22 111 258
+23 301 425
-23 567 633
+24 636 994
-24 85 573
+25 765 689
-25 419 260
+26 355 119
-26 445 618
+27 618 497
-27 557 62
+28 756 204
-28 453 284
+29 336 464
-29 676 483
+30 75 445
-30 675 643
+31 212 203
-31 560 135
+32 476 621
-32 583 599
+33 243 524
-33 692 690
+34 655 521
-34 40 449
+35 340 107
-35 23 411
+36 246 602
-36 777 170
+37 472 42
-37 415 579
+38 997 281
-38 863 567
+39 965 503
-39 672 788
+40 111 183
-40 79 646
+41 23 508
-41 655 230
+42 331 791
-42 304 0
+43 680 296
-43 665 992
+44 171 778
-44 703 168
+45 712 740
-45 88 501
+46 590 527
-46 329 669
+47 671 814
-47 601 689
+48 529 432
-48 504 170
+49 880 857
-49 460 390
+50 269 933
-50 945 908
+51 21 373
-51 368 230
+52 218 162
-52 673 791
+53 228 263
-53 280 75
+54 778 44
-54 544 311
+55 84 375
-55 372 315
+56 268 779
-56 773 117
+57 353 367
-57 293 211
PRECEDENCE_SECTION
+0 -0
+1 -1
+2 -2
+3 -3
+4 -4
+5 -5
+6 -6
+7 -7
+8 -8
+9 -9
+10 -10
+11 -11
+12 -12
+13 -13
+14 -14
+15 -15
+16 -16
+17 -17
+18 -18
+19 -19
+20 -20
+21 -21
+22 -22
+23 -23
+24 -24
+25 -25
+26 -26
+27 -27
+28 -28
+29 -29
+30 -30
+31 -31
+32 -32
+33 -33
+34 -34
+35 -35
+36 -36
+37 -37
+38 -38
+39 -39
+40 -40
+41 -41
+42 -42
+43 -43
+44 -44
+45 -45
+46 -46
+47 -47
+48 -48
+49 -49
+50 -50
+51 -51
+52 -52
+53 -53
+54 -54
+55 -55
+56 -56
+57 -57
EOF
